Nodes = {x1,x2,x3,x4,x5,x6,x7,x8};
Colors = {Red, Blue, Green, Yellow};
Adj = 
[
  {x2, x3},
  {x1, x3, x4},
  {x1, x2, x4, x7, x6, x5},
  {x2, x3, x7},
  {x3, x6, x8},
  {x7, x3, x5, x8},
  {x4, x3, x6},
  {x5, x6}
];